cases/matpower/case5_gap.m
ipopt
SOCW
[info | PowerModels]: removing 1 cost terms from generator 4: [-4000.0, 0.0]
[info | PowerModels]: removing 1 cost terms from generator 1: [-1400.0, 0.0]
[info | PowerModels]: removing 1 cost terms from generator 5: [-1000.0, 0.0]
[info | PowerModels]: removing 1 cost terms from generator 2: [-1500.0, 0.0]
[info | PowerModels]: removing 1 cost terms from generator 3: [-3000.0, 0.0]

******************************************************************************
This program contains Ipopt, a library for large-scale nonlinear optimization.
 Ipopt is released as open source code under the Eclipse Public License (EPL).
         For more information visit http://projects.coin-or.org/Ipopt
******************************************************************************

This is Ipopt version 3.13.2, running with linear solver mumps.
NOTE: Other linear solvers might be more efficient (see Ipopt documentation).

Number of nonzeros in equality constraint Jacobian...:      130
Number of nonzeros in inequality constraint Jacobian.:      120
Number of nonzeros in Lagrangian Hessian.............:       42

Total number of variables............................:       51
                     variables with only lower bounds:        0
                variables with lower and upper bounds:       51
                     variables with only upper bounds:        0
Total number of equality constraints.................:       34
Total number of inequality constraints...............:       42
        inequality constraints with only lower bounds:       18
   inequality constraints with lower and upper bounds:        0
        inequality constraints with only upper bounds:       24

iter    objective    inf_pr   inf_du lg(mu)  ||d||  lg(rg) alpha_du alpha_pr  ls
   0 -1.0059989e+02 3.99e+00 2.92e+01  -1.0 0.00e+00    -  0.00e+00 0.00e+00   0
   1 -1.3250120e+03 3.73e+00 3.96e+01  -1.0 5.58e+00    -  4.78e-03 6.40e-02f  1
   2 -2.1196108e+03 3.69e+00 3.91e+01  -1.0 1.96e+01    -  1.51e-02 1.10e-02f  1
   3 -2.3792162e+03 3.67e+00 1.43e+02  -1.0 1.01e+01    -  9.96e-02 5.67e-03f  1
   4 -4.7803501e+03 3.45e+00 1.98e+02  -1.0 7.13e+00    -  1.07e-01 6.19e-02f  1
   5 -1.0060895e+04 2.88e+00 2.46e+02  -1.0 6.14e+00    -  5.48e-02 1.63e-01f  1
   6 -1.2393548e+04 2.60e+00 1.48e+02  -1.0 5.32e+00    -  1.77e-01 9.83e-02f  1
   7 -1.8928519e+04 1.75e+00 2.40e+01  -1.0 6.54e+00    -  4.64e-01 3.26e-01f  1
   8 -2.3170010e+04 1.19e+00 1.27e+02  -1.0 8.79e+00    -  6.65e-01 3.21e-01f  1
   9 -2.4336079e+04 1.03e+00 3.56e+02  -1.0 9.02e+00    -  9.59e-02 1.36e-01f  1
iter    objective    inf_pr   inf_du lg(mu)  ||d||  lg(rg) alpha_du alpha_pr  ls
  10 -2.5759920e+04 8.28e-01 2.14e+02  -1.0 1.00e+01    -  2.52e-01 1.94e-01f  1
  11 -2.5798059e+04 8.20e-01 7.30e+02  -1.0 2.71e+01    -  4.07e-02 8.79e-03f  1
  12 -2.5972738e+04 7.76e-01 5.86e+02  -1.0 1.40e+01    -  1.21e-02 5.41e-02f  1
  13 -2.6186184e+04 7.15e-01 5.43e+02  -1.0 2.20e+00    -  2.82e-02 7.89e-02f  1
  14 -2.6578378e+04 6.04e-01 4.61e+02  -1.0 2.46e+00    -  1.03e-01 1.55e-01f  1
  15 -2.6730245e+04 5.60e-01 4.20e+02  -1.0 2.95e+00    -  2.29e-01 7.25e-02f  1
  16 -2.6765648e+04 5.46e-01 4.10e+02  -1.0 8.12e+00    -  3.10e-02 2.52e-02f  1
  17 -2.7686923e+04 2.02e-01 2.12e+03  -1.0 6.98e+00    -  5.70e-02 6.31e-01f  1
  18 -2.8082937e+04 4.77e-02 5.07e+02  -1.0 1.97e+00    -  1.00e+00 7.63e-01f  1
  19 -2.8199779e+04 4.54e-14 3.00e-02  -1.0 1.91e+00    -  1.00e+00 1.00e+00f  1
iter    objective    inf_pr   inf_du lg(mu)  ||d||  lg(rg) alpha_du alpha_pr  ls
  20 -2.8232490e+04 4.77e-14 1.16e+00  -2.5 3.35e-01    -  9.64e-01 8.93e-01f  1
  21 -2.8235740e+04 3.51e-14 1.33e-02  -2.5 1.62e-01    -  1.00e+00 1.00e+00h  1
  22 -2.8236899e+04 4.29e-14 9.09e-02  -3.8 3.86e-01    -  8.11e-01 1.00e+00h  1
  23 -2.8237169e+04 2.78e-14 1.95e-02  -3.8 2.51e+00    -  7.83e-01 8.57e-01h  1
  24 -2.8237203e+04 2.37e-14 7.72e-05  -3.8 1.01e+00    -  1.00e+00 1.00e+00h  1
  25 -2.8237201e+04 3.34e-14 8.45e-07  -3.8 6.01e-02    -  1.00e+00 1.00e+00h  1
  26 -2.8237276e+04 1.69e-14 3.50e-03  -5.7 2.79e-01    -  9.67e-01 8.29e-01h  1
  27 -2.8237291e+04 4.05e-14 7.49e-06  -5.7 5.37e-01    -  1.00e+00 1.00e+00h  1
  28 -2.8237291e+04 2.01e-14 9.91e-08  -5.7 1.55e+00    -  1.00e+00 1.00e+00h  1
  29 -2.8237291e+04 1.10e-14 7.15e-09  -5.7 4.45e-01    -  1.00e+00 1.00e+00h  1
iter    objective    inf_pr   inf_du lg(mu)  ||d||  lg(rg) alpha_du alpha_pr  ls
  30 -2.8237291e+04 8.62e-15 1.84e-11  -5.7 3.45e-02    -  1.00e+00 1.00e+00h  1
  31 -2.8237291e+04 2.31e-14 1.84e-11  -5.7 2.48e-04    -  1.00e+00 1.00e+00h  1
  32 -2.8237292e+04 3.12e-14 4.16e-05  -8.6 9.67e-01    -  8.16e-01 9.64e-01h  1
  33 -2.8237292e+04 3.00e-14 1.48e-04  -8.6 1.02e-01    -  1.00e+00 5.29e-01h  1
  34 -2.8237292e+04 1.61e-14 1.57e-11  -8.6 2.57e-02    -  1.00e+00 1.00e+00h  1

Number of Iterations....: 34

                                   (scaled)                 (unscaled)
Objective...............:  -7.0593230704301232e+02   -2.8237292281720493e+04
Dual infeasibility......:   1.5715953852738847e-11    6.2863815410955389e-10
Constraint violation....:   1.4294121442048890e-14    1.6119050538776492e-14
Complementarity.........:   2.5822190092265383e-09    1.0328876036906153e-07
Overall NLP error.......:   2.5822190092265383e-09    1.0328876036906153e-07


Number of objective function evaluations             = 35
Number of objective gradient evaluations             = 35
Number of equality constraint evaluations            = 35
Number of inequality constraint evaluations          = 35
Number of equality constraint Jacobian evaluations   = 35
Number of inequality constraint Jacobian evaluations = 35
Number of Lagrangian Hessian evaluations             = 34
Total CPU secs in IPOPT (w/o function evaluations)   =      0.297
Total CPU secs in NLP function evaluations           =      0.211

EXIT: Optimal Solution Found.
Time to Solution........:1.2606780529022217
cases/matpower/case5_gap.m
ipopt
QCRM
[info | PowerModels]: removing 1 cost terms from generator 4: [-4000.0, 0.0]
[info | PowerModels]: removing 1 cost terms from generator 1: [-1400.0, 0.0]
[info | PowerModels]: removing 1 cost terms from generator 5: [-1000.0, 0.0]
[info | PowerModels]: removing 1 cost terms from generator 2: [-1500.0, 0.0]
[info | PowerModels]: removing 1 cost terms from generator 3: [-3000.0, 0.0]

******************************************************************************
This program contains Ipopt, a library for large-scale nonlinear optimization.
 Ipopt is released as open source code under the Eclipse Public License (EPL).
         For more information visit http://projects.coin-or.org/Ipopt
******************************************************************************

This is Ipopt version 3.13.2, running with linear solver mumps.
NOTE: Other linear solvers might be more efficient (see Ipopt documentation).

Number of nonzeros in equality constraint Jacobian...:      179
Number of nonzeros in inequality constraint Jacobian.:      404
Number of nonzeros in Lagrangian Hessian.............:       53

Total number of variables............................:       91
                     variables with only lower bounds:        0
                variables with lower and upper bounds:       86
                     variables with only upper bounds:        0
Total number of equality constraints.................:       47
Total number of inequality constraints...............:      148
        inequality constraints with only lower bounds:       71
   inequality constraints with lower and upper bounds:        0
        inequality constraints with only upper bounds:       77

iter    objective    inf_pr   inf_du lg(mu)  ||d||  lg(rg) alpha_du alpha_pr  ls
   0 -1.0059989e+02 4.83e+01 2.87e+01  -1.0 0.00e+00    -  0.00e+00 0.00e+00   0
   1 -1.9994382e+02 4.81e+01 2.87e+01  -1.0 2.68e+00    -  3.82e-03 4.08e-03f  1
   2 -6.1246428e+02 4.77e+01 2.84e+01  -1.0 1.25e+01    -  8.33e-03 8.32e-03f  1
   3 -9.2200323e+02 4.73e+01 8.68e+01  -1.0 8.18e+00    -  8.65e-02 8.25e-03f  1
   4 -2.6286702e+03 4.51e+01 6.27e+01  -1.0 6.69e+00    -  3.51e-02 4.76e-02f  1
   5 -3.4097755e+03 4.40e+01 3.76e+01  -1.0 6.66e+00    -  1.95e-02 2.33e-02f  1
   6 -9.4628479e+03 3.56e+01 2.06e+02  -1.0 6.16e+00    -  5.95e-02 1.92e-01f  1
   7 -1.1118310e+04 3.30e+01 4.61e+01  -1.0 4.32e+00    -  2.62e-01 7.32e-02f  1
   8 -1.3539256e+04 2.88e+01 1.00e+02  -1.0 5.88e+00    -  2.33e-01 1.27e-01f  1
   9 -2.1435011e+04 1.50e+01 2.80e+02  -1.0 5.10e+00    -  2.56e-02 4.77e-01f  1
iter    objective    inf_pr   inf_du lg(mu)  ||d||  lg(rg) alpha_du alpha_pr  ls
  10 -2.1693019e+04 1.45e+01 6.51e+02  -1.0 1.96e+00   2.0 1.30e-02 3.40e-02f  1
  11 -2.3912766e+04 1.06e+01 5.10e+02  -1.0 3.22e+00    -  4.39e-01 2.69e-01f  1
  12 -2.4658729e+04 9.39e+00 4.33e+02  -1.0 2.01e+01    -  3.14e-02 1.16e-01f  1
  13 -2.5292560e+04 8.07e+00 7.60e+02  -1.0 1.24e+00   1.5 7.77e-02 1.41e-01f  1
  14 -2.5416437e+04 7.73e+00 7.31e+02  -1.0 7.14e+00    -  9.51e-02 4.18e-02f  1
  15 -2.6275294e+04 4.94e+00 4.88e+02  -1.0 1.58e+00    -  1.18e-01 3.61e-01f  1
  16 -2.6699741e+04 3.50e+00 3.44e+02  -1.0 5.40e+00    -  9.32e-02 2.91e-01f  1
  17 -2.6717875e+04 3.43e+00 3.38e+02  -1.0 2.17e+00    -  8.36e-02 1.90e-02h  1
  18 -2.7149927e+04 1.39e+00 1.36e+02  -1.0 6.42e+00    -  5.23e-01 5.97e-01f  1
  19 -2.7292210e+04 7.96e-01 9.49e+01  -1.0 9.08e+00    -  5.61e-01 4.25e-01f  1
iter    objective    inf_pr   inf_du lg(mu)  ||d||  lg(rg) alpha_du alpha_pr  ls
  20 -2.7463316e+04 3.45e-01 3.01e+02  -1.0 2.11e+01    -  2.08e-01 5.67e-01f  1
  21 -2.7530398e+04 1.96e-01 2.23e+02  -1.0 1.13e+01    -  6.73e-01 4.31e-01f  1
  22 -2.7593775e+04 8.04e-02 3.71e+02  -1.0 2.21e+01    -  3.96e-01 5.90e-01f  1
  23 -2.7609354e+04 3.91e-02 2.51e+03  -1.0 7.42e+00    -  1.00e+00 5.14e-01H  1
  24 -2.7617511e+04 1.46e-02 4.75e+03  -1.0 2.09e+00    -  1.00e+00 6.26e-01h  1
  25 -2.7620785e+04 4.51e-03 7.80e+03  -1.0 6.94e-01    -  1.00e+00 6.92e-01h  1
  26 -2.7622025e+04 6.34e-04 5.67e+03  -1.0 2.16e-01    -  1.00e+00 8.60e-01h  1
  27 -2.7622227e+04 1.11e-11 3.29e-05  -1.0 3.03e-02    -  1.00e+00 1.00e+00f  1
  28 -2.7654531e+04 6.76e-12 4.89e+02  -3.8 2.09e+00    -  9.01e-01 8.96e-01f  1
  29 -2.7659699e+04 1.34e-11 1.66e+02  -3.8 1.89e+00    -  9.98e-01 9.82e-01h  1
iter    objective    inf_pr   inf_du lg(mu)  ||d||  lg(rg) alpha_du alpha_pr  ls
  30 -2.7659772e+04 5.78e-12 8.73e-04  -3.8 4.14e-01    -  1.00e+00 1.00e+00h  1
  31 -2.7659774e+04 1.64e-12 8.30e-07  -3.8 2.11e-01    -  1.00e+00 1.00e+00h  1
  32 -2.7659774e+04 1.44e-12 1.50e-09  -3.8 5.59e-03    -  1.00e+00 1.00e+00h  1
  33 -2.7659838e+04 4.51e-12 1.80e+01  -5.7 2.82e-01    -  8.81e-01 1.00e+00f  1
  34 -2.7659843e+04 2.69e-12 1.56e+00  -5.7 7.05e-01    -  9.13e-01 1.00e+00h  1
  35 -2.7659844e+04 5.28e-12 2.43e-06  -5.7 3.78e-01    -  1.00e+00 1.00e+00h  1
  36 -2.7659844e+04 1.17e-11 4.15e-07  -5.7 3.39e-02    -  1.00e+00 1.00e+00h  1
  37 -2.7659844e+04 5.06e-12 1.58e-09  -5.7 5.09e-03    -  1.00e+00 1.00e+00h  1
  38 -2.7659845e+04 4.97e-12 7.10e-01  -8.6 1.96e-01    -  5.22e-01 8.99e-01h  1
  39 -2.7659845e+04 3.83e-12 8.33e-03  -8.6 6.12e-02    -  9.00e-01 4.83e-01h  1
iter    objective    inf_pr   inf_du lg(mu)  ||d||  lg(rg) alpha_du alpha_pr  ls
  40 -2.7659845e+04 1.15e-12 3.39e-02  -8.6 1.01e-03   1.0 5.48e-01 9.30e-01h  1
  41 -2.7659845e+04 5.49e-12 1.19e-03  -8.6 7.41e-05   0.6 1.00e+00 9.74e-01h  1
  42 -2.7659845e+04 6.16e-12 8.51e-05  -8.6 6.89e-05   0.1 1.00e+00 1.00e+00f  1
  43 -2.7659845e+04 3.62e-12 8.32e-05  -8.6 2.02e-04  -0.4 1.00e+00 1.00e+00h  1
  44 -2.7659845e+04 2.63e-12 8.06e-05  -8.6 5.54e-04  -0.9 1.00e+00 3.65e-01h  1
  45 -2.7659845e+04 2.87e-12 1.61e-05  -8.6 3.53e-04  -1.3 1.00e+00 1.00e+00f  1
  46 -2.7659845e+04 3.35e-12 1.39e-05  -8.6 9.09e-04  -1.8 1.00e+00 1.00e+00h  1
  47 -2.7659845e+04 4.42e-12 1.39e-05  -8.6 2.74e-03  -2.3 1.00e+00 6.32e-01h  1
  48 -2.7659846e+04 9.89e-12 8.78e-05  -8.6 1.85e+00    -  8.63e-02 1.54e-02f  1
  49 -2.7659846e+04 1.47e-12 1.27e-04  -8.6 1.46e+01    -  8.42e-02 5.60e-02f  1
iter    objective    inf_pr   inf_du lg(mu)  ||d||  lg(rg) alpha_du alpha_pr  ls
  50 -2.7659846e+04 9.21e-12 3.82e-04  -8.6 3.41e-01    -  3.76e-01 1.83e-01f  1
  51 -2.7659846e+04 7.31e-12 1.13e-03  -8.6 2.22e-01    -  1.00e+00 1.28e-01f  1
  52 -2.7659846e+04 1.20e-11 1.13e-07  -8.6 3.04e-02    -  1.00e+00 1.00e+00f  1
  53 -2.7659846e+04 9.50e-12 2.04e-11  -8.6 8.53e-03    -  1.00e+00 1.00e+00h  1

Number of Iterations....: 53

                                   (scaled)                 (unscaled)
Objective...............:  -6.9149613907293815e+02   -2.7659845562917526e+04
Dual infeasibility......:   2.0411027252078886e-11    8.1644109008315546e-10
Constraint violation....:   3.3667785114821505e-14    9.5017604895275554e-12
Complementarity.........:   3.1132784222441665e-09    1.2453113688976664e-07
Overall NLP error.......:   3.1132784222441665e-09    1.2453113688976664e-07


Number of objective function evaluations             = 55
Number of objective gradient evaluations             = 54
Number of equality constraint evaluations            = 55
Number of inequality constraint evaluations          = 55
Number of equality constraint Jacobian evaluations   = 54
Number of inequality constraint Jacobian evaluations = 54
Number of Lagrangian Hessian evaluations             = 53
Total CPU secs in IPOPT (w/o function evaluations)   =      0.349
Total CPU secs in NLP function evaluations           =      0.212

EXIT: Optimal Solution Found.
Time to Solution........:1.34031081199646
